
     Program PWSCF v.6.4.1 starts on 19Aug2025 at 20:53:51 

     This program is part of the open-source Quantum ESPRESSO suite
     for quantum simulation of materials; please cite
         "P. Giannozzi et al., J. Phys.:Condens. Matter 21 395502 (2009);
         "P. Giannozzi et al., J. Phys.:Condens. Matter 29 465901 (2017);
          URL http://www.quantum-espresso.org", 
     in publications or presentations arising from this work. More details at
     http://www.quantum-espresso.org/quote

     Parallel version (MPI & OpenMP), running on       8 processor cores
     Number of MPI processes:                 1
     Threads/MPI process:                     8

     MPI processes distributed on     1 nodes
     Waiting for input...
     Reading input from standard input

     Current dimensions of program PWSCF are:
     Max number of different atomic species (ntypx) = 10
     Max number of k-points (npk) =  40000
     Max angular momentum in pseudopotentials (lmaxx) =  3

     Atomic positions and unit cell read from directory:
     .\graphene.save\

               file C.pbe-n-kjpaw_psl.1.0.0.UPF: wavefunction(s)  2S 2P renormalized

     Subspace diagonalization in iterative solution of the eigenvalue problem:
     a serial algorithm will be used


     G-vector sticks info
     --------------------
     sticks:   dense  smooth     PW     G-vecs:    dense   smooth      PW
     Sum         595     241     85                35435     8973    1713



     bravais-lattice index     =            4
     lattice parameter (alat)  =       4.6540  a.u.
     unit-cell volume          =     261.8973 (a.u.)^3
     number of atoms/cell      =            2
     number of atomic types    =            1
     number of electrons       =         8.00
     number of Kohn-Sham states=            8
     kinetic-energy cutoff     =      40.0000  Ry
     charge density cutoff     =     400.0000  Ry
     Exchange-correlation      = SLA PW PBX PBC ( 1  4  3  4 0 0)

     celldm(1)=   4.654000  celldm(2)=   0.000000  celldm(3)=   3.000000
     celldm(4)=   0.000000  celldm(5)=   0.000000  celldm(6)=   0.000000

     crystal axes: (cart. coord. in units of alat)
               a(1) = (   1.000000   0.000000   0.000000 )  
               a(2) = (  -0.500000   0.866025   0.000000 )  
               a(3) = (   0.000000   0.000000   3.000000 )  

     reciprocal axes: (cart. coord. in units 2 pi/alat)
               b(1) = (  1.000000  0.577350 -0.000000 )  
               b(2) = (  0.000000  1.154701  0.000000 )  
               b(3) = (  0.000000 -0.000000  0.333333 )  


     PseudoPot. # 1 for C  read from file:
     .\C.pbe-n-kjpaw_psl.1.0.0.UPF
     MD5 check sum: d6cda0f428f4bfa5e6956a1475abca27
     Pseudo is Projector augmented-wave + core cor, Zval =  4.0
     Generated using "atomic" code by A. Dal Corso v.5.1
     Shape of augmentation charge: PSQ
     Using radial grid of 1073 points,  4 beta functions with: 
                l(1) =   0
                l(2) =   0
                l(3) =   1
                l(4) =   1
     Q(r) pseudized with 0 coefficients 


     atomic species   valence    mass     pseudopotential
        C              4.00    12.01070     C ( 1.00)

     24 Sym. Ops., with inversion, found (12 have fractional translation)



   Cartesian axes

     site n.     atom                  positions (alat units)
         1           C   tau(   1) = (   0.0000000   0.0000000   0.0000000  )
         2           C   tau(   2) = (   0.0000000   0.5773503   0.0000000  )

     number of k points=    48
                       cart. coord. in units 2pi/alat
        k(    1) = (   0.0000000   0.0000000   0.0000000), wk =   0.0416667
        k(    2) = (   0.0166667   0.0288675   0.0000000), wk =   0.0416667
        k(    3) = (   0.0333333   0.0577350   0.0000000), wk =   0.0416667
        k(    4) = (   0.0500000   0.0866025   0.0000000), wk =   0.0416667
        k(    5) = (   0.0666667   0.1154701   0.0000000), wk =   0.0416667
        k(    6) = (   0.0833333   0.1443376   0.0000000), wk =   0.0416667
        k(    7) = (   0.1000000   0.1732051   0.0000000), wk =   0.0416667
        k(    8) = (   0.1166667   0.2020726   0.0000000), wk =   0.0416667
        k(    9) = (   0.1333333   0.2309401   0.0000000), wk =   0.0416667
        k(   10) = (   0.1500000   0.2598076   0.0000000), wk =   0.0416667
        k(   11) = (   0.1666667   0.2886751   0.0000000), wk =   0.0416667
        k(   12) = (   0.1833333   0.3175426   0.0000000), wk =   0.0416667
        k(   13) = (   0.2000000   0.3464102   0.0000000), wk =   0.0416667
        k(   14) = (   0.2166667   0.3752777   0.0000000), wk =   0.0416667
        k(   15) = (   0.2333333   0.4041452   0.0000000), wk =   0.0416667
        k(   16) = (   0.2500000   0.4330127   0.0000000), wk =   0.0416667
        k(   17) = (   0.2666667   0.4618802   0.0000000), wk =   0.0416667
        k(   18) = (   0.2833333   0.4907477   0.0000000), wk =   0.0416667
        k(   19) = (   0.3000000   0.5196152   0.0000000), wk =   0.0416667
        k(   20) = (   0.3166667   0.5484828   0.0000000), wk =   0.0416667
        k(   21) = (   0.3333333   0.5773503   0.0000000), wk =   0.0416667
        k(   22) = (   0.3000000   0.5773503   0.0000000), wk =   0.0416667
        k(   23) = (   0.2666667   0.5773503   0.0000000), wk =   0.0416667
        k(   24) = (   0.2333333   0.5773503   0.0000000), wk =   0.0416667
        k(   25) = (   0.2000000   0.5773503   0.0000000), wk =   0.0416667
        k(   26) = (   0.1666667   0.5773503   0.0000000), wk =   0.0416667
        k(   27) = (   0.1333333   0.5773503   0.0000000), wk =   0.0416667
        k(   28) = (   0.1000000   0.5773503   0.0000000), wk =   0.0416667
        k(   29) = (   0.0666667   0.5773503   0.0000000), wk =   0.0416667
        k(   30) = (   0.0333333   0.5773503   0.0000000), wk =   0.0416667
        k(   31) = (   0.0000000   0.5773503   0.0000000), wk =   0.0416667
        k(   32) = (   0.0000000   0.5433885   0.0000000), wk =   0.0416667
        k(   33) = (   0.0000000   0.5094267   0.0000000), wk =   0.0416667
        k(   34) = (   0.0000000   0.4754649   0.0000000), wk =   0.0416667
        k(   35) = (   0.0000000   0.4415031   0.0000000), wk =   0.0416667
        k(   36) = (   0.0000000   0.4075414   0.0000000), wk =   0.0416667
        k(   37) = (   0.0000000   0.3735796   0.0000000), wk =   0.0416667
        k(   38) = (   0.0000000   0.3396178   0.0000000), wk =   0.0416667
        k(   39) = (   0.0000000   0.3056560   0.0000000), wk =   0.0416667
        k(   40) = (   0.0000000   0.2716942   0.0000000), wk =   0.0416667
        k(   41) = (   0.0000000   0.2377325   0.0000000), wk =   0.0416667
        k(   42) = (   0.0000000   0.2037707   0.0000000), wk =   0.0416667
        k(   43) = (   0.0000000   0.1698089   0.0000000), wk =   0.0416667
        k(   44) = (   0.0000000   0.1358471   0.0000000), wk =   0.0416667
        k(   45) = (   0.0000000   0.1018853   0.0000000), wk =   0.0416667
        k(   46) = (   0.0000000   0.0679236   0.0000000), wk =   0.0416667
        k(   47) = (   0.0000000   0.0339618   0.0000000), wk =   0.0416667
        k(   48) = (   0.0000000   0.0000000   0.0000000), wk =   0.0416667

     Dense  grid:    35435 G-vectors     FFT dimensions: (  30,  30,  90)

     Smooth grid:     8973 G-vectors     FFT dimensions: (  24,  24,  60)

     Estimated max dynamical RAM per process >      35.37 MB

     Check: negative core charge=   -0.000004

     The potential is recalculated from file :
     .\graphene.save\charge-density


     negative rho (up, down):  9.529E-06 0.000E+00
     Starting wfcs are    8 randomized atomic wfcs
     Checking if some PAW data can be deallocated... 

     Band Structure Calculation
     Davidson diagonalization with overlap

     ethr =  1.25E-10,  avg # of iterations = 17.9

     total cpu time spent up to now is        6.7 secs

     End of band structure calculation

          k = 0.0000 0.0000 0.0000 (  1133 PWs)   bands (ev):

   -18.6519  -6.7398  -2.1422  -2.1422   3.7458   7.1205   9.2647   9.2647

          k = 0.0167 0.0289 0.0000 (  1129 PWs)   bands (ev):

   -18.6321  -6.7162  -2.2235  -2.1858   3.7726   7.1462   9.2616   9.3506

          k = 0.0333 0.0577 0.0000 (  1127 PWs)   bands (ev):

   -18.5729  -6.6453  -2.4595  -2.3154   3.8532   7.2233   9.2753   9.5254

          k = 0.0500 0.0866 0.0000 (  1121 PWs)   bands (ev):

   -18.4744  -6.5275  -2.8256  -2.5264   3.9875   7.3516   9.3241   9.6771

          k = 0.0667 0.1155 0.0000 (  1117 PWs)   bands (ev):

   -18.3366  -6.3630  -3.2924  -2.8116   4.1755   7.5307   9.4141   9.8731

          k = 0.0833 0.1443 0.0000 (  1123 PWs)   bands (ev):

   -18.1597  -6.1524  -3.8306  -3.1628   4.4173   7.7600   9.5481  10.1139

          k = 0.1000 0.1732 0.0000 (  1123 PWs)   bands (ev):

   -17.9441  -5.8965  -4.4139  -3.5688   4.7128   8.0387   9.7282  10.1736

          k = 0.1167 0.2021 0.0000 (  1129 PWs)   bands (ev):

   -17.6900  -5.5964  -5.0234  -4.0193   5.0619   8.3654   9.5020   9.9549

          k = 0.1333 0.2309 0.0000 (  1123 PWs)   bands (ev):

   -17.3979  -5.6439  -5.2528  -4.5033   5.4645   8.7385   8.7913  10.2281

          k = 0.1500 0.2598 0.0000 (  1119 PWs)   bands (ev):

   -17.0682  -6.2646  -5.0107  -4.8677   5.9205   8.0563   9.1549  10.5460

          k = 0.1667 0.2887 0.0000 (  1127 PWs)   bands (ev):

   -16.7018  -6.8770  -5.5323  -4.4430   6.4295   7.3100   9.6101  10.9058

          k = 0.1833 0.3175 0.0000 (  1125 PWs)   bands (ev):

   -16.2993  -7.4750  -6.0595  -3.9810   6.5640   6.9912  10.0966  11.3044

          k = 0.2000 0.3464 0.0000 (  1127 PWs)   bands (ev):

   -15.8621  -8.0538  -6.5846  -3.4851   5.8269   7.6049  10.6007  11.7364

          k = 0.2167 0.3753 0.0000 (  1119 PWs)   bands (ev):

   -15.3916  -8.6099  -7.1006  -2.9592   5.1063   8.2700  11.0972  12.1951

          k = 0.2333 0.4041 0.0000 (  1117 PWs)   bands (ev):

   -14.8899  -9.1412  -7.6016  -2.4083   4.4078   8.9850  11.5384  12.6694

          k = 0.2500 0.4330 0.0000 (  1111 PWs)   bands (ev):

   -14.3603  -9.6449  -8.0809  -1.8397   3.7370   9.7478  11.8464  13.1425

          k = 0.2667 0.4619 0.0000 (  1107 PWs)   bands (ev):

   -13.8076 -10.1199  -8.5315  -1.2613   3.0975  10.5544  11.9533  13.5872

          k = 0.2833 0.4907 0.0000 (  1101 PWs)   bands (ev):

   -13.2398 -10.5651  -8.9441  -0.6834   2.4927  11.3968  11.8877  13.8622

          k = 0.3000 0.5196 0.0000 (  1111 PWs)   bands (ev):

   -12.6726 -10.9794  -9.3030  -0.1192   1.9249  11.7518  12.2563  13.8981

          k = 0.3167 0.5485 0.0000 (  1113 PWs)   bands (ev):

   -12.1392 -11.3622  -9.5759   0.4172   1.3967  11.6337  13.0776  13.8238

          k = 0.3333 0.5774 0.0000 (  1137 PWs)   bands (ev):

   -11.7130 -11.7130  -9.6918   0.9096   0.9096  11.5868  13.6360  13.6360

          k = 0.3000 0.5774 0.0000 (  1112 PWs)   bands (ev):

   -12.0310 -11.5029  -9.5448   0.4660   1.3438  11.6403  13.3700  13.5475

          k = 0.2667 0.5774 0.0000 (  1110 PWs)   bands (ev):

   -12.3163 -11.5175  -9.1333   0.0661   1.7078  11.8057  13.0703  13.2150

          k = 0.2333 0.5774 0.0000 (  1110 PWs)   bands (ev):

   -12.5684 -11.6464  -8.5757  -0.2887   1.9967  12.0775  12.6429  12.7707

          k = 0.2000 0.5774 0.0000 (  1104 PWs)   bands (ev):

   -12.7871 -11.8079  -7.9653  -0.5974   2.2133  11.7752  12.4326  12.4919

          k = 0.1667 0.5774 0.0000 (  1104 PWs)   bands (ev):

   -12.9724 -11.9660  -7.3544  -0.8599   2.3663  10.8851  12.2454  12.4212

          k = 0.1333 0.5774 0.0000 (  1114 PWs)   bands (ev):

   -13.1242 -12.1052  -6.7801  -1.0754   2.4682  10.0593  12.0380  12.1993

          k = 0.1000 0.5774 0.0000 (  1114 PWs)   bands (ev):

   -13.2423 -12.2179  -6.2769  -1.2434   2.5318   9.3505  11.8738  12.0253

          k = 0.0667 0.5774 0.0000 (  1124 PWs)   bands (ev):

   -13.3268 -12.3003  -5.8805  -1.3638   2.5687   8.8022  11.7551  11.9002

          k = 0.0333 0.5774 0.0000 (  1120 PWs)   bands (ev):

   -13.3774 -12.3504  -5.6249  -1.4359   2.5874   8.4539  11.6834  11.8249

          k = 0.0000 0.5774 0.0000 (  1120 PWs)   bands (ev):

   -13.3942 -12.3672  -5.5366  -1.4600   2.5931   8.3341  11.6595  11.7997

          k = 0.0000 0.5434 0.0000 (  1128 PWs)   bands (ev):

   -13.6936 -12.0374  -5.5163  -1.5909   2.7560   8.3442  10.8350  12.6661

          k = 0.0000 0.5094 0.0000 (  1128 PWs)   bands (ev):

   -14.2151 -11.4247  -5.4550  -1.9315   3.1924   8.3741   9.9927  12.8874

          k = 0.0000 0.4755 0.0000 (  1128 PWs)   bands (ev):

   -14.7523 -10.7367  -5.3538  -2.3880   3.8058   8.4187   9.2047  12.2034

          k = 0.0000 0.4415 0.0000 (  1114 PWs)   bands (ev):

   -15.2693 -10.0109  -5.2135  -2.8907   4.5239   8.3635   8.5870  11.5421

          k = 0.0000 0.4075 0.0000 (  1120 PWs)   bands (ev):

   -15.7567  -9.2597  -5.0362  -3.4009   5.3021   7.7406   8.6066  10.9156

          k = 0.0000 0.3736 0.0000 (  1110 PWs)   bands (ev):

   -16.2102  -8.4905  -4.8237  -3.8968   6.1125   7.1094   8.7020  10.3308

          k = 0.0000 0.3396 0.0000 (  1110 PWs)   bands (ev):

   -16.6278  -7.7112  -4.5793  -4.3663   6.5285   6.9333   8.8110   9.7931

          k = 0.0000 0.3057 0.0000 (  1110 PWs)   bands (ev):

   -17.0082  -6.9291  -4.8019  -4.3069   6.0013   7.7421   8.9255   9.3109

          k = 0.0000 0.2717 0.0000 (  1118 PWs)   bands (ev):

   -17.3503  -6.1533  -5.1989  -4.0119   5.5288   8.4539   8.9549   9.0376

          k = 0.0000 0.2377 0.0000 (  1128 PWs)   bands (ev):

   -17.6536  -5.5541  -5.3949  -3.7011   5.1113   8.3893   9.1385   9.3906

          k = 0.0000 0.2038 0.0000 (  1132 PWs)   bands (ev):

   -17.9173  -5.8651  -4.6685  -3.3837   4.7492   8.0691   9.2189  10.0824

          k = 0.0000 0.1698 0.0000 (  1122 PWs)   bands (ev):

   -18.1411  -6.1303  -3.9907  -3.0708   4.4427   7.7832   9.2702  10.1035

          k = 0.0000 0.1358 0.0000 (  1114 PWs)   bands (ev):

   -18.3246  -6.3487  -3.3824  -2.7773   4.1918   7.5461   9.2889   9.8677

          k = 0.0000 0.1019 0.0000 (  1122 PWs)   bands (ev):

   -18.4676  -6.5194  -2.8685  -2.5204   3.9967   7.3603   9.2818   9.6775

          k = 0.0000 0.0679 0.0000 (  1126 PWs)   bands (ev):

   -18.5699  -6.6417  -2.4752  -2.3173   3.8573   7.2272   9.2664   9.5282

          k = 0.0000 0.0340 0.0000 (  1131 PWs)   bands (ev):

   -18.6314  -6.7153  -2.2270  -2.1873   3.7737   7.1472   9.2608   9.3544

          k = 0.0000 0.0000 0.0000 (  1133 PWs)   bands (ev):

   -18.6519  -6.7398  -2.1422  -2.1422   3.7458   7.1205   9.2647   9.2647

     Writing output data file graphene.save\

     init_run     :      0.62s CPU      0.44s WALL (       1 calls)
     electrons    :     14.22s CPU      5.10s WALL (       1 calls)

     Called by init_run:
     wfcinit      :      0.00s CPU      0.00s WALL (       1 calls)
     potinit      :      0.23s CPU      0.07s WALL (       1 calls)
     hinit0       :      0.31s CPU      0.31s WALL (       1 calls)

     Called by electrons:
     c_bands      :     14.22s CPU      5.09s WALL (       1 calls)
     v_of_rho     :      0.05s CPU      0.02s WALL (       1 calls)
     newd         :      0.05s CPU      0.02s WALL (       1 calls)
     PAW_pot      :      0.19s CPU      0.04s WALL (       1 calls)

     Called by c_bands:
     init_us_2    :      0.17s CPU      0.02s WALL (      48 calls)
     cegterg      :     12.58s CPU      4.68s WALL (      61 calls)

     Called by sum_band:

     Called by *egterg:
     h_psi        :     10.97s CPU      4.05s WALL (     968 calls)
     s_psi        :      0.02s CPU      0.05s WALL (     968 calls)
     g_psi        :      0.59s CPU      0.09s WALL (     859 calls)
     cdiaghg      :      0.16s CPU      0.19s WALL (     907 calls)

     Called by h_psi:
     h_psi:pot    :     10.30s CPU      3.92s WALL (     968 calls)
     h_psi:calbec :      0.00s CPU      0.06s WALL (     968 calls)
     vloc_psi     :     10.30s CPU      3.81s WALL (     968 calls)
     add_vuspsi   :      0.00s CPU      0.05s WALL (     968 calls)

     General routines
     calbec       :      0.00s CPU      0.05s WALL (     968 calls)
     fft          :      0.00s CPU      0.00s WALL (      13 calls)
     ffts         :      0.00s CPU      0.00s WALL (       1 calls)
     fftw         :      0.78s CPU      1.45s WALL (    9724 calls)
     interpolate  :      0.00s CPU      0.00s WALL (       1 calls)
     davcio       :      0.00s CPU      0.01s WALL (      96 calls)

     Parallel routines

     PWSCF        :     16.30s CPU      6.87s WALL


   This run was terminated on:  20:53:58  19Aug2025            

=------------------------------------------------------------------------------=
   JOB DONE.
=------------------------------------------------------------------------------=
