
     Program PWSCF v.6.4.1 starts on 19Aug2025 at 21:58:17 

     This program is part of the open-source Quantum ESPRESSO suite
     for quantum simulation of materials; please cite
         "P. Giannozzi et al., J. Phys.:Condens. Matter 21 395502 (2009);
         "P. Giannozzi et al., J. Phys.:Condens. Matter 29 465901 (2017);
          URL http://www.quantum-espresso.org", 
     in publications or presentations arising from this work. More details at
     http://www.quantum-espresso.org/quote

     Parallel version (MPI & OpenMP), running on       8 processor cores
     Number of MPI processes:                 1
     Threads/MPI process:                     8

     MPI processes distributed on     1 nodes
     Waiting for input...
     Reading input from standard input

     Current dimensions of program PWSCF are:
     Max number of different atomic species (ntypx) = 10
     Max number of k-points (npk) =  40000
     Max angular momentum in pseudopotentials (lmaxx) =  3
     Message from routine iosys:
     london is obsolete, use "vdw_corr='grimme-d2'" instead
               file C.pbe-n-kjpaw_psl.1.0.0.UPF: wavefunction(s)  2S 2P renormalized

     -------------------------------------------------
     Parameters for Dispersion (Grimme-D2) Correction:
     -------------------------------------------------
       atom      VdW radius       C_6     

        C          2.744         60.710

     Subspace diagonalization in iterative solution of the eigenvalue problem:
     a serial algorithm will be used


     G-vector sticks info
     --------------------
     sticks:   dense  smooth     PW     G-vecs:    dense   smooth      PW
     Sum         721     241     85                39467     7643    1685



     bravais-lattice index     =            4
     lattice parameter (alat)  =       4.6448  a.u.
     unit-cell volume          =     222.5207 (a.u.)^3
     number of atoms/cell      =            4
     number of atomic types    =            1
     number of electrons       =        16.00
     number of Kohn-Sham states=           12
     kinetic-energy cutoff     =      40.0000  Ry
     charge density cutoff     =     480.0000  Ry
     convergence threshold     =      1.0E-06
     mixing beta               =       0.7000
     number of iterations used =            8  plain     mixing
     Exchange-correlation      = SLA PW PBX PBC ( 1  4  3  4 0 0)

     celldm(1)=   4.644790  celldm(2)=   1.000000  celldm(3)=   2.564139
     celldm(4)=   0.000000  celldm(5)=   0.000000  celldm(6)=   0.000000

     crystal axes: (cart. coord. in units of alat)
               a(1) = (   1.000000   0.000000   0.000000 )  
               a(2) = (  -0.500000   0.866025   0.000000 )  
               a(3) = (   0.000000   0.000000   2.564139 )  

     reciprocal axes: (cart. coord. in units 2 pi/alat)
               b(1) = (  1.000000  0.577350 -0.000000 )  
               b(2) = (  0.000000  1.154701  0.000000 )  
               b(3) = (  0.000000 -0.000000  0.389994 )  


     PseudoPot. # 1 for C  read from file:
     .\C.pbe-n-kjpaw_psl.1.0.0.UPF
     MD5 check sum: 5d2aebdfa2cae82b50a7e79e9516da0f
     Pseudo is Projector augmented-wave + core cor, Zval =  4.0
     Generated using "atomic" code by A. Dal Corso v.5.1
     Shape of augmentation charge: PSQ
     Using radial grid of 1073 points,  4 beta functions with: 
                l(1) =   0
                l(2) =   0
                l(3) =   1
                l(4) =   1
     Q(r) pseudized with 0 coefficients 


     atomic species   valence    mass     pseudopotential
        C              4.00    12.01070     C ( 1.00)

     Starting magnetic structure 
     atomic species   magnetization
        C            0.010

     24 Sym. Ops., with inversion, found (12 have fractional translation)



   Cartesian axes

     site n.     atom                  positions (alat units)
         1           C   tau(   1) = (   0.0000000   0.0000000   0.0000000  )
         2           C   tau(   2) = (   0.0000000   0.5773503   0.0000000  )
         3           C   tau(   3) = (   0.0000000   0.0000000   1.2820695  )
         4           C   tau(   4) = (   0.5000000   0.2886751   1.2820695  )

     number of k points=    90  Methfessel-Paxton smearing, width (Ry)=  0.0300
                       cart. coord. in units 2pi/alat
        k(    1) = (   0.0500000   0.0866025   0.0389994), wk =   0.0080000
        k(    2) = (   0.0500000   0.0866025   0.1169983), wk =   0.0080000
        k(    3) = (   0.0500000   0.0866025  -0.1949972), wk =   0.0040000
        k(    4) = (   0.0500000   0.2020726   0.0389994), wk =   0.0160000
        k(    5) = (   0.0500000   0.2020726   0.1169983), wk =   0.0160000
        k(    6) = (   0.0500000   0.2020726  -0.1949972), wk =   0.0080000
        k(    7) = (   0.0500000   0.3175426   0.0389994), wk =   0.0160000
        k(    8) = (   0.0500000   0.3175426   0.1169983), wk =   0.0160000
        k(    9) = (   0.0500000   0.3175426  -0.1949972), wk =   0.0080000
        k(   10) = (   0.0500000   0.4330127   0.0389994), wk =   0.0160000
        k(   11) = (   0.0500000   0.4330127   0.1169983), wk =   0.0160000
        k(   12) = (   0.0500000   0.4330127  -0.1949972), wk =   0.0080000
        k(   13) = (   0.0500000   0.5484828   0.0389994), wk =   0.0160000
        k(   14) = (   0.0500000   0.5484828   0.1169983), wk =   0.0160000
        k(   15) = (   0.0500000   0.5484828  -0.1949972), wk =   0.0080000
        k(   16) = (   0.0500000  -0.4907477   0.0389994), wk =   0.0160000
        k(   17) = (   0.0500000  -0.4907477   0.1169983), wk =   0.0160000
        k(   18) = (   0.0500000  -0.4907477  -0.1949972), wk =   0.0080000
        k(   19) = (   0.0500000  -0.3752777   0.0389994), wk =   0.0160000
        k(   20) = (   0.0500000  -0.3752777   0.1169983), wk =   0.0160000
        k(   21) = (   0.0500000  -0.3752777  -0.1949972), wk =   0.0080000
        k(   22) = (   0.0500000  -0.2598076   0.0389994), wk =   0.0160000
        k(   23) = (   0.0500000  -0.2598076   0.1169983), wk =   0.0160000
        k(   24) = (   0.0500000  -0.2598076  -0.1949972), wk =   0.0080000
        k(   25) = (   0.0500000  -0.1443376   0.0389994), wk =   0.0160000
        k(   26) = (   0.0500000  -0.1443376   0.1169983), wk =   0.0160000
        k(   27) = (   0.0500000  -0.1443376  -0.1949972), wk =   0.0080000
        k(   28) = (   0.0500000  -0.0288675   0.0389994), wk =   0.0080000
        k(   29) = (   0.0500000  -0.0288675   0.1169983), wk =   0.0080000
        k(   30) = (   0.0500000  -0.0288675  -0.1949972), wk =   0.0040000
        k(   31) = (   0.1500000   0.2598076   0.0389994), wk =   0.0080000
        k(   32) = (   0.1500000   0.2598076   0.1169983), wk =   0.0080000
        k(   33) = (   0.1500000   0.2598076  -0.1949972), wk =   0.0040000
        k(   34) = (   0.1500000   0.3752777   0.0389994), wk =   0.0160000
        k(   35) = (   0.1500000   0.3752777   0.1169983), wk =   0.0160000
        k(   36) = (   0.1500000   0.3752777  -0.1949972), wk =   0.0080000
        k(   37) = (   0.1500000   0.4907477   0.0389994), wk =   0.0160000
        k(   38) = (   0.1500000   0.4907477   0.1169983), wk =   0.0160000
        k(   39) = (   0.1500000   0.4907477  -0.1949972), wk =   0.0080000
        k(   40) = (   0.1500000   0.6062178   0.0389994), wk =   0.0160000
        k(   41) = (   0.1500000   0.6062178   0.1169983), wk =   0.0160000
        k(   42) = (   0.1500000   0.6062178  -0.1949972), wk =   0.0080000
        k(   43) = (   0.1500000  -0.4330127   0.0389994), wk =   0.0160000
        k(   44) = (   0.1500000  -0.4330127   0.1169983), wk =   0.0160000
        k(   45) = (   0.1500000  -0.4330127  -0.1949972), wk =   0.0080000
        k(   46) = (   0.1500000  -0.3175426   0.0389994), wk =   0.0160000
        k(   47) = (   0.1500000  -0.3175426   0.1169983), wk =   0.0160000
        k(   48) = (   0.1500000  -0.3175426  -0.1949972), wk =   0.0080000
        k(   49) = (   0.1500000  -0.2020726   0.0389994), wk =   0.0160000
        k(   50) = (   0.1500000  -0.2020726   0.1169983), wk =   0.0160000
        k(   51) = (   0.1500000  -0.2020726  -0.1949972), wk =   0.0080000
        k(   52) = (   0.1500000  -0.0866025   0.0389994), wk =   0.0080000
        k(   53) = (   0.1500000  -0.0866025   0.1169983), wk =   0.0080000
        k(   54) = (   0.1500000  -0.0866025  -0.1949972), wk =   0.0040000
        k(   55) = (   0.2500000   0.4330127   0.0389994), wk =   0.0080000
        k(   56) = (   0.2500000   0.4330127   0.1169983), wk =   0.0080000
        k(   57) = (   0.2500000   0.4330127  -0.1949972), wk =   0.0040000
        k(   58) = (   0.2500000   0.5484828   0.0389994), wk =   0.0160000
        k(   59) = (   0.2500000   0.5484828   0.1169983), wk =   0.0160000
        k(   60) = (   0.2500000   0.5484828  -0.1949972), wk =   0.0080000
        k(   61) = (   0.2500000   0.6639528   0.0389994), wk =   0.0160000
        k(   62) = (   0.2500000   0.6639528   0.1169983), wk =   0.0160000
        k(   63) = (   0.2500000   0.6639528  -0.1949972), wk =   0.0080000
        k(   64) = (   0.2500000  -0.3752777   0.0389994), wk =   0.0160000
        k(   65) = (   0.2500000  -0.3752777   0.1169983), wk =   0.0160000
        k(   66) = (   0.2500000  -0.3752777  -0.1949972), wk =   0.0080000
        k(   67) = (   0.2500000  -0.2598076   0.0389994), wk =   0.0160000
        k(   68) = (   0.2500000  -0.2598076   0.1169983), wk =   0.0160000
        k(   69) = (   0.2500000  -0.2598076  -0.1949972), wk =   0.0080000
        k(   70) = (   0.2500000  -0.1443376   0.0389994), wk =   0.0080000
        k(   71) = (   0.2500000  -0.1443376   0.1169983), wk =   0.0080000
        k(   72) = (   0.2500000  -0.1443376  -0.1949972), wk =   0.0040000
        k(   73) = (   0.3500000   0.6062178   0.0389994), wk =   0.0080000
        k(   74) = (   0.3500000   0.6062178   0.1169983), wk =   0.0080000
        k(   75) = (   0.3500000   0.6062178  -0.1949972), wk =   0.0040000
        k(   76) = (   0.3500000   0.7216878   0.0389994), wk =   0.0160000
        k(   77) = (   0.3500000   0.7216878   0.1169983), wk =   0.0160000
        k(   78) = (   0.3500000   0.7216878  -0.1949972), wk =   0.0080000
        k(   79) = (   0.3500000  -0.3175426   0.0389994), wk =   0.0160000
        k(   80) = (   0.3500000  -0.3175426   0.1169983), wk =   0.0160000
        k(   81) = (   0.3500000  -0.3175426  -0.1949972), wk =   0.0080000
        k(   82) = (   0.3500000  -0.2020726   0.0389994), wk =   0.0080000
        k(   83) = (   0.3500000  -0.2020726   0.1169983), wk =   0.0080000
        k(   84) = (   0.3500000  -0.2020726  -0.1949972), wk =   0.0040000
        k(   85) = (   0.4500000   0.7794229   0.0389994), wk =   0.0080000
        k(   86) = (   0.4500000   0.7794229   0.1169983), wk =   0.0080000
        k(   87) = (   0.4500000   0.7794229  -0.1949972), wk =   0.0040000
        k(   88) = (   0.4500000  -0.2598076   0.0389994), wk =   0.0080000
        k(   89) = (   0.4500000  -0.2598076   0.1169983), wk =   0.0080000
        k(   90) = (   0.4500000  -0.2598076  -0.1949972), wk =   0.0040000

     Dense  grid:    39467 G-vectors     FFT dimensions: (  36,  36,  90)

     Smooth grid:     7643 G-vectors     FFT dimensions: (  20,  20,  48)

     Estimated max dynamical RAM per process >     101.93 MB
     Generating pointlists ...
     new r_m :   0.2382 (alat units)  1.1062 (a.u.) for type    1

     Check: negative core charge=   -0.000003

     Initial potential from superposition of free atoms

     starting charge   15.99983, renormalised to   16.00000
     Starting wfcs are   16 randomized atomic wfcs
     Checking if some PAW data can be deallocated... 

     total cpu time spent up to now is        4.3 secs

     Self-consistent Calculation

     iteration #  1     ecut=    40.00 Ry     beta= 0.70
     Davidson diagonalization with overlap
     ethr =  1.00E-02,  avg # of iterations =  3.1

     total cpu time spent up to now is       12.0 secs

     total energy              =     -73.74800538 Ry
     Harris-Foulkes estimate   =     -73.97489401 Ry
     estimated scf accuracy    <       0.38583779 Ry

     total magnetization       =     0.00 Bohr mag/cell
     absolute magnetization    =     0.00 Bohr mag/cell

     iteration #  2     ecut=    40.00 Ry     beta= 0.70
     Davidson diagonalization with overlap
     ethr =  2.41E-03,  avg # of iterations =  2.4

     total cpu time spent up to now is       17.9 secs

     total energy              =     -73.80475031 Ry
     Harris-Foulkes estimate   =     -73.80499521 Ry
     estimated scf accuracy    <       0.00414921 Ry

     total magnetization       =     0.00 Bohr mag/cell
     absolute magnetization    =     0.00 Bohr mag/cell

     iteration #  3     ecut=    40.00 Ry     beta= 0.70
     Davidson diagonalization with overlap
     ethr =  2.59E-05,  avg # of iterations =  4.4

     total cpu time spent up to now is       24.9 secs

     total energy              =     -73.80509666 Ry
     Harris-Foulkes estimate   =     -73.80507222 Ry
     estimated scf accuracy    <       0.00031464 Ry

     total magnetization       =     0.00 Bohr mag/cell
     absolute magnetization    =     0.00 Bohr mag/cell

     iteration #  4     ecut=    40.00 Ry     beta= 0.70
     Davidson diagonalization with overlap
     ethr =  1.97E-06,  avg # of iterations =  2.7

     total cpu time spent up to now is       30.4 secs

     total energy              =     -73.80510942 Ry
     Harris-Foulkes estimate   =     -73.80511087 Ry
     estimated scf accuracy    <       0.00000438 Ry

     total magnetization       =     0.00 Bohr mag/cell
     absolute magnetization    =     0.00 Bohr mag/cell

     iteration #  5     ecut=    40.00 Ry     beta= 0.70
     Davidson diagonalization with overlap
     ethr =  2.74E-08,  avg # of iterations =  2.3

     Magnetic moment per site:
     atom:    1    charge:    1.7050    magn:   -0.0001    constr:    0.0000
     atom:    2    charge:    1.7081    magn:    0.0001    constr:    0.0000
     atom:    3    charge:    1.7050    magn:   -0.0001    constr:    0.0000
     atom:    4    charge:    1.7081    magn:    0.0001    constr:    0.0000

     total cpu time spent up to now is       36.2 secs

     End of self-consistent calculation

     Number of k-points >= 100: set verbosity='high' to print the bands.

     the Fermi energy is     7.8043 ev

!    total energy              =     -73.80511082 Ry
     Harris-Foulkes estimate   =     -73.80511091 Ry
     estimated scf accuracy    <       0.00000049 Ry

     total all-electron energy =      -304.861502 Ry

     The total energy is the sum of the following terms:

     one-electron contribution =      -5.55504135 Ry
     hartree contribution      =      11.65122630 Ry
     xc contribution           =     -18.60259307 Ry
     ewald contribution        =     -36.58786914 Ry
     Dispersion Correction     =      -0.04169197 Ry
     one-center paw contrib.   =     -24.66928794 Ry
     smearing contrib. (-TS)   =       0.00014635 Ry

     total magnetization       =     0.00 Bohr mag/cell
     absolute magnetization    =     0.00 Bohr mag/cell

     convergence has been achieved in   5 iterations

     Writing output data file bulk.save\

     init_run     :     11.14s CPU      3.22s WALL (       1 calls)
     electrons    :    109.75s CPU     31.93s WALL (       1 calls)

     Called by init_run:
     wfcinit      :      8.81s CPU      2.39s WALL (       1 calls)
     potinit      :      1.62s CPU      0.36s WALL (       1 calls)
     hinit0       :      0.45s CPU      0.39s WALL (       1 calls)

     Called by electrons:
     c_bands      :     78.70s CPU     23.35s WALL (       5 calls)
     sum_band     :     19.34s CPU      5.93s WALL (       5 calls)
     v_of_rho     :      3.09s CPU      0.61s WALL (       6 calls)
     newd         :      0.84s CPU      0.19s WALL (       6 calls)
     PAW_pot      :      8.27s CPU      1.64s WALL (       6 calls)
     mix_rho      :      0.02s CPU      0.02s WALL (       5 calls)

     Called by c_bands:
     init_us_2    :      3.92s CPU      0.46s WALL (    1980 calls)
     cegterg      :     74.16s CPU     22.46s WALL (     900 calls)

     Called by sum_band:
     sum_band:bec :      1.44s CPU      0.43s WALL (     900 calls)
     addusdens    :      0.84s CPU      0.25s WALL (       5 calls)

     Called by *egterg:
     h_psi        :     70.58s CPU     21.08s WALL (    3746 calls)
     s_psi        :      0.05s CPU      0.21s WALL (    3746 calls)
     g_psi        :      1.77s CPU      0.30s WALL (    2666 calls)
     cdiaghg      :      0.47s CPU      0.92s WALL (    3566 calls)

     Called by h_psi:
     h_psi:pot    :     68.44s CPU     20.63s WALL (    3746 calls)
     h_psi:calbec :      0.08s CPU      0.22s WALL (    3746 calls)
     vloc_psi     :     68.33s CPU     20.21s WALL (    3746 calls)
     add_vuspsi   :      0.03s CPU      0.18s WALL (    3746 calls)

     General routines
     calbec       :      0.08s CPU      0.28s WALL (    4646 calls)
     fft          :      0.17s CPU      0.07s WALL (     144 calls)
     ffts         :      0.00s CPU      0.00s WALL (      22 calls)
     fftw         :      4.62s CPU      5.35s WALL (   74020 calls)
     interpolate  :      0.03s CPU      0.02s WALL (      12 calls)

     Parallel routines

     PWSCF        :   2m 2.55s CPU     36.73s WALL


   This run was terminated on:  21:58:54  19Aug2025            

=------------------------------------------------------------------------------=
   JOB DONE.
=------------------------------------------------------------------------------=
